experimental_results/Results_of_Fault_Detection/smt2/busybox.smt2
(set-info :smt-lib-version 2.6)
(set-logic QF_BV)
(set-info :source busybox.model)
(set-info :category "industrial")
(set-info :status sat)
(declare-const ENABLE_DESKTOP Bool)
(declare-const ENABLE_FEATURE_EDITING Bool)
(declare-const ENABLE_FEATURE_EDITING_SAVEHISTORY Bool)
(declare-const ENABLE_FEATURE_FTP_WRITE Bool)
(declare-const ENABLE_FEATURE_GETOPT_LONG Bool)
(declare-const ENABLE_FEATURE_HTTPD_AUTH_MD5 Bool)
(declare-const ENABLE_FEATURE_HTTPD_BASIC_AUTH Bool)
(declare-const ENABLE_FEATURE_HTTPD_CGI Bool)
(declare-const ENABLE_FEATURE_HTTPD_CONFIG_WITH_SCRIPT_INTERPR Bool)
(declare-const ENABLE_FEATURE_HTTPD_ENCODE_URL_STR Bool)
(declare-const ENABLE_FEATURE_HTTPD_ERROR_PAGES Bool)
(declare-const ENABLE_FEATURE_HTTPD_GZIP Bool)
(declare-const ENABLE_FEATURE_HTTPD_PROXY Bool)
(declare-const ENABLE_FEATURE_HTTPD_RANGES Bool)
(declare-const ENABLE_FEATURE_HTTPD_SETUID Bool)
(declare-const ENABLE_FEATURE_HTTPD_SET_REMOTE_PORT_TO_ENV Bool)
(declare-const ENABLE_FEATURE_HTTPD_USE_SENDFILE Bool)
(declare-const ENABLE_FEATURE_INIT_SYSLOG Bool)
(declare-const ENABLE_FEATURE_IPV6 Bool)
(declare-const ENABLE_FEATURE_LESS_BRACKETS Bool)
(declare-const ENABLE_FEATURE_LESS_DASHCMD Bool)
(declare-const ENABLE_FEATURE_LESS_FLAGS Bool)
(declare-const ENABLE_FEATURE_LESS_LINENUMS Bool)
(declare-const ENABLE_FEATURE_LESS_MARKS Bool)
(declare-const ENABLE_FEATURE_LESS_REGEXP Bool)
(declare-const ENABLE_FEATURE_LESS_WINCH Bool)
(declare-const ENABLE_FEATURE_MDEV_CONF Bool)
(declare-const ENABLE_FEATURE_MDEV_EXEC Bool)
(declare-const ENABLE_FEATURE_MDEV_LOAD_FIRMWARE Bool)
(declare-const ENABLE_FEATURE_MDEV_RENAME Bool)
(declare-const ENABLE_FEATURE_SEAMLESS_BZ2 Bool)
(declare-const ENABLE_FEATURE_SEAMLESS_GZ Bool)
(declare-const ENABLE_FEATURE_SEAMLESS_LZMA Bool)
(declare-const ENABLE_FEATURE_SEAMLESS_Z Bool)
(declare-const ENABLE_FEATURE_SH_STANDALONE Bool)
(declare-const ENABLE_FEATURE_SUID Bool)
(declare-const ENABLE_FEATURE_TAR_CREATE Bool)
(declare-const ENABLE_FEATURE_TAR_FROM Bool)
(declare-const ENABLE_FEATURE_TAR_GNU_EXTENSIONS Bool)
(declare-const ENABLE_FEATURE_TAR_LONG_OPTIONS Bool)
(declare-const ENABLE_FEATURE_TAR_NOPRESERVE_TIME Bool)
(declare-const ENABLE_FEATURE_TAR_TO_COMMAND Bool)
(declare-const ENABLE_FEATURE_WGET_AUTHENTICATION Bool)
(declare-const ENABLE_FTPD Bool)
(declare-const ENABLE_HUSH_BASH_COMPAT Bool)
(declare-const ENABLE_HUSH_BRACE_EXPANSION Bool)
(declare-const ENABLE_HUSH_CASE Bool)
(declare-const ENABLE_HUSH_EXPORT_N Bool)
(declare-const ENABLE_HUSH_FUNCTIONS Bool)
(declare-const ENABLE_HUSH_HELP Bool)
(declare-const ENABLE_HUSH_IF Bool)
(declare-const ENABLE_HUSH_INTERACTIVE Bool)
(declare-const ENABLE_HUSH_JOB Bool)
(declare-const ENABLE_HUSH_LOCAL Bool)
(declare-const ENABLE_HUSH_LOOPS Bool)
(declare-const ENABLE_HUSH_MODE_X Bool)
(declare-const ENABLE_HUSH_RANDOM_SUPPORT Bool)
(declare-const ENABLE_HUSH_SAVEHISTORY Bool)
(declare-const ENABLE_HUSH_TICK Bool)
(declare-const ENABLE_HWCLOCK Bool)
(declare-const ENABLE_LOCALE_SUPPORT Bool)
(declare-const ENABLE_LOGIN Bool)
(declare-const ENABLE_LONG_OPTS Bool)
(declare-const ENABLE_NC_110_COMPAT Bool)
(declare-const ENABLE_NC_EXTRA Bool)
(declare-const ENABLE_PAM Bool)
(declare-const ENABLE_SH_MATH_SUPPORT Bool)
(declare-const ENABLE_SU Bool)
(assert (or (= ENABLE_LONG_OPTS true) (not (= ENABLE_FEATURE_TAR_LONG_OPTIONS true))))
(assert (or (not (= ENABLE_HUSH_JOB true)) (= ENABLE_HUSH_INTERACTIVE true)))
(assert (or (not (= ENABLE_PAM true)) (= ENABLE_LOGIN true)))
(assert (or (not (= ENABLE_FEATURE_HTTPD_CONFIG_WITH_SCRIPT_INTERPR true)) (= ENABLE_FEATURE_HTTPD_CGI true)))
(assert (or (not (= ENABLE_FEATURE_EDITING_SAVEHISTORY true)) (= ENABLE_FEATURE_EDITING true)))
(assert (or (= ENABLE_FEATURE_EDITING_SAVEHISTORY true) (not (= ENABLE_HUSH_SAVEHISTORY true))))
(assert (or (not (= ENABLE_FEATURE_MDEV_EXEC true)) (= ENABLE_FEATURE_MDEV_CONF true)))
(assert (or (= ENABLE_HUSH_INTERACTIVE true) (not (= ENABLE_HUSH_SAVEHISTORY true))))
(assert (or (not (= ENABLE_FEATURE_HTTPD_SET_REMOTE_PORT_TO_ENV true)) (= ENABLE_FEATURE_HTTPD_CGI true)))
(assert (or (not (= ENABLE_FEATURE_FTP_WRITE true)) (= ENABLE_FTPD true)))
(assert (or (not (= ENABLE_FEATURE_LESS_LINENUMS true)) (= ENABLE_FEATURE_LESS_DASHCMD true)))
(assert (or (= ENABLE_FEATURE_TAR_LONG_OPTIONS true) (not (= ENABLE_FEATURE_TAR_TO_COMMAND true))))
(assert (or (not (= ENABLE_FEATURE_HTTPD_AUTH_MD5 true)) (= ENABLE_FEATURE_HTTPD_BASIC_AUTH true)))
(assert (or (not (= ENABLE_FEATURE_MDEV_RENAME true)) (= ENABLE_FEATURE_MDEV_CONF true)))
(assert (or (not (= ENABLE_HUSH_LOCAL true)) (= ENABLE_HUSH_FUNCTIONS true)))
(assert (or (not (= ENABLE_HUSH_BRACE_EXPANSION true)) (= ENABLE_HUSH_BASH_COMPAT true)))
(check-sat)
(exit)
